32      4       
10      10      10      10      
0       0       0       0       0       3       2       3       4       
5       0       1       1       1       2       6       7       
2       1       4       0       4       2       6       7       
1       0       3       4       3       1       5       
5       0       4       6       3       1       6       
6       6       4       0       5       2       8       9       
7       8       7       5       0       1       8       
2       6       2       3       0       2       10      14      
8       1       8       2       0       2       10      14      
10      0       3       2       4       1       11      
1       5       0       3       8       2       12      26      
8       6       0       4       4       1       13      
6       5       4       5       0       5       15      16      17      20      23      
4       4       0       6       4       2       15      26      
10      4       7       0       2       2       18      28      
2       4       0       7       6       2       18      28      
4       2       2       8       0       2       18      28      
4       3       3       0       1       1       19      
8       3       4       0       4       2       21      27      
2       3       0       7       5       2       21      27      
6       0       3       1       3       1       22      
9       5       5       2       0       2       24      25      
1       0       3       4       7       3       27      29      30      
4       3       4       0       3       2       30      31      
1       5       5       4       0       2       29      30      
5       4       2       0       6       1       28      
8       4       8       3       0       1       31      
5       3       0       7       5       1       29      
10      0       5       3       4       1       32      
10      3       3       0       2       1       32      
9       4       2       1       0       1       32      
0       0       0       0       0       0       
